NAME: PointSet_Angle_50_3
TYPE: TSP
COMMENT: Points chosen discrete uniformly at random out of ${0, \ldots, 500}^2$.
DIMENSION: 50
EDGE_WEIGHT_TYPE: EUC_2D
NODE_COORD_SECTION
1 132 440
2 408 112
3 82 196
4 488 32
5 194 38
6 58 487
7 220 216
8 77 319
9 357 415
10 287 324
11 125 403
12 388 71
13 372 472
14 357 30
15 158 4
16 468 36
17 444 122
18 149 273
19 64 136
20 51 4
21 421 110
22 492 140
23 326 68
24 205 429
25 230 493
26 252 101
27 141 140
28 172 13
29 111 275
30 290 270
31 279 3
32 52 470
33 125 201
34 489 190
35 337 39
36 194 258
37 149 432
38 144 476
39 0 350
40 404 477
41 342 403
42 77 229
43 42 497
44 489 153
45 17 278
46 169 297
47 282 222
48 12 153
49 169 0
50 89 253
EOF
